
Gurobi 10.0.1 (linux64) logging started Sun Nov 26 15:37:25 2023

Set parameter LogFile to value "ArtificialInstance/ExperimentV2/S3T3K3/AdRo/gurobi1.txt"
Gurobi Optimizer version 10.0.1 build v10.0.1rc0 (linux64)

CPU model: AMD EPYC 7H12 64-Core Processor, instruction set [SSE2|AVX|AVX2]
Thread count: 128 physical cores, 128 logical processors, using up to 32 threads

Academic license 656792 - for non-commercial use only - registered to b.___@student.vu.nl
Optimize a model with 12843 rows, 12505 columns and 48309 nonzeros
Model fingerprint: 0x5f05fd24
Variable types: 1 continuous, 12504 integer (12504 binary)
Coefficient statistics:
  Matrix range     [1e+00, 4e+01]
  Objective range  [1e+00, 2e+01]
  Bounds range     [1e+00, 1e+00]
  RHS range        [1e+00, 1e+00]
Presolve removed 2587 rows and 2740 columns
Presolve time: 0.21s
Presolved: 10256 rows, 9765 columns, 38427 nonzeros
Variable types: 1 continuous, 9764 integer (9764 binary)

Root relaxation: objective 6.536610e+01, 8697 iterations, 0.76 seconds (0.42 work units)

    Nodes    |    Current Node    |     Objective Bounds      |     Work
 Expl Unexpl |  Obj  Depth IntInf | Incumbent    BestBd   Gap | It/Node Time

     0     0   65.36610    0    2          -   65.36610      -     -    1s
H    0     0                      65.5118845   65.36610  0.22%     -    1s
H    0     0                      65.3661042   65.36610  0.00%     -    1s
     0     0   65.36610    0    2   65.36610   65.36610  0.00%     -    1s

Explored 1 nodes (11733 simplex iterations) in 1.24 seconds (0.75 work units)
Thread count was 32 (of 128 available processors)

Solution count 2: 65.3661 65.5119 

Optimal solution found (tolerance 1.00e-04)
Best objective 6.536610424967e+01, best bound 6.536610424967e+01, gap 0.0000%
